certificates/rado_a7_c240_N34.cnf
c Rad2 upper bound instance: x1 + 7*x2 - x3 = 240, interval [1,34]
p cnf 34 180
1 3 34 0
-1 -3 -34 0
2 4 34 0
-2 -4 -34 0
3 5 34 0
-3 -5 -34 0
4 6 34 0
-4 -6 -34 0
5 7 34 0
-5 -7 -34 0
6 8 34 0
-6 -8 -34 0
7 9 34 0
-7 -9 -34 0
1 10 33 0
-1 -10 -33 0
8 10 34 0
-8 -10 -34 0
2 11 33 0
-2 -11 -33 0
9 11 34 0
-9 -11 -34 0
3 12 33 0
-3 -12 -33 0
10 12 34 0
-10 -12 -34 0
4 13 33 0
-4 -13 -33 0
11 13 34 0
-11 -13 -34 0
5 14 33 0
-5 -14 -33 0
12 14 34 0
-12 -14 -34 0
6 15 33 0
-6 -15 -33 0
13 15 34 0
-13 -15 -34 0
7 16 33 0
-7 -16 -33 0
14 16 34 0
-14 -16 -34 0
1 17 32 0
-1 -17 -32 0
8 17 33 0
-8 -17 -33 0
15 17 34 0
-15 -17 -34 0
2 18 32 0
-2 -18 -32 0
9 18 33 0
-9 -18 -33 0
16 18 34 0
-16 -18 -34 0
3 19 32 0
-3 -19 -32 0
10 19 33 0
-10 -19 -33 0
17 19 34 0
-17 -19 -34 0
4 20 32 0
-4 -20 -32 0
11 20 33 0
-11 -20 -33 0
18 20 34 0
-18 -20 -34 0
5 21 32 0
-5 -21 -32 0
12 21 33 0
-12 -21 -33 0
19 21 34 0
-19 -21 -34 0
6 22 32 0
-6 -22 -32 0
13 22 33 0
-13 -22 -33 0
20 22 34 0
-20 -22 -34 0
7 23 32 0
-7 -23 -32 0
14 23 33 0
-14 -23 -33 0
21 23 34 0
-21 -23 -34 0
1 24 31 0
-1 -24 -31 0
8 24 32 0
-8 -24 -32 0
15 24 33 0
-15 -24 -33 0
22 24 34 0
-22 -24 -34 0
2 25 31 0
-2 -25 -31 0
9 25 32 0
-9 -25 -32 0
16 25 33 0
-16 -25 -33 0
23 25 34 0
-23 -25 -34 0
3 26 31 0
-3 -26 -31 0
10 26 32 0
-10 -26 -32 0
17 26 33 0
-17 -26 -33 0
24 26 34 0
-24 -26 -34 0
4 27 31 0
-4 -27 -31 0
11 27 32 0
-11 -27 -32 0
18 27 33 0
-18 -27 -33 0
25 27 34 0
-25 -27 -34 0
5 28 31 0
-5 -28 -31 0
12 28 32 0
-12 -28 -32 0
19 28 33 0
-19 -28 -33 0
26 28 34 0
-26 -28 -34 0
6 29 31 0
-6 -29 -31 0
13 29 32 0
-13 -29 -32 0
20 29 33 0
-20 -29 -33 0
27 29 34 0
-27 -29 -34 0
7 30 31 0
-7 -30 -31 0
14 30 32 0
-14 -30 -32 0
21 30 33 0
-21 -30 -33 0
28 30 34 0
-28 -30 -34 0
1 30 31 0
-1 -30 -31 0
8 31 0
-8 -31 0
15 31 32 0
-15 -31 -32 0
22 31 33 0
-22 -31 -33 0
29 31 34 0
-29 -31 -34 0
2 30 32 0
-2 -30 -32 0
9 31 32 0
-9 -31 -32 0
16 32 0
-16 -32 0
23 32 33 0
-23 -32 -33 0
30 32 34 0
-30 -32 -34 0
3 30 33 0
-3 -30 -33 0
10 31 33 0
-10 -31 -33 0
17 32 33 0
-17 -32 -33 0
24 33 0
-24 -33 0
31 33 34 0
-31 -33 -34 0
4 30 34 0
-4 -30 -34 0
11 31 34 0
-11 -31 -34 0
18 32 34 0
-18 -32 -34 0
25 33 34 0
-25 -33 -34 0
32 34 0
-32 -34 0
