certificates/rado_a7_c240_N34.drat
-34 0
32 0
-16 0
14 0
18 0
-30 0
-2 0
28 0
4 0
-12 0
-20 0
10 0
22 0
-26 0
-6 0
24 0
8 0
0
